Instance name:    lr107.txt
Authors:          Gerhard Hiermann
Date:             2022-mm-dd
Reference:        XYZ
Solution: 0;10;1111.315;60.00 s
Route 1 :  52 7 102 62 11 64 49 19 48 82 18 89
Route 2 :  27 69 1 76 79 101 78 34 68 80 12 28
Route 3 :  94 92 98 44 14 38 86 16 91 100 37 97
Route 4 :  60 83 45 5 103 99 87 57 2 74 72 73
Route 5 :  26 21 39 23 67 55 24 29 3 77
Route 6 :  33 51 30 88 31 10 63 90 32 70
Route 7 :  42 43 15 41 22 75 56 4 25 54
Route 8 :  47 36 46 8 84 17 61 85 104 93
Route 9 :  40 53 6 96 59 95 13 58
Route 10 :  20 65 9 66 71 35 81 50
